p cnf 421 3058
6 0
11 0
16 0
21 0
12 0
17 0
22 0
18 0
23 0
24 0
-6 -12 11 0
-6 -17 16 0
-6 -22 21 0
-11 -8 6 0
-11 -18 16 0
-11 -23 21 0
-16 -9 6 0
-16 -14 11 0
-16 -24 21 0
-21 -10 6 0
-21 -15 11 0
-21 -20 16 0
-2 -11 12 0
-2 -16 17 0
-2 -21 22 0
-12 -3 2 0
-12 -18 17 0
-12 -23 22 0
-17 -4 2 0
-17 -14 12 0
-17 -24 22 0
-22 -5 2 0
-22 -15 12 0
-22 -20 17 0
-3 -6 8 0
-3 -16 18 0
-3 -21 23 0
-8 -2 3 0
-8 -17 18 0
-8 -22 23 0
-18 -4 3 0
-18 -9 8 0
-18 -24 23 0
-23 -5 3 0
-23 -10 8 0
-23 -20 18 0
-4 -6 9 0
-4 -11 14 0
-4 -21 24 0
-9 -2 4 0
-9 -12 14 0
-9 -22 24 0
-14 -3 4 0
-14 -8 9 0
-14 -23 24 0
-24 -5 4 0
-24 -10 9 0
-24 -15 14 0
-5 -6 10 0
-5 -11 15 0
-5 -16 20 0
-10 -2 5 0
-10 -12 15 0
-10 -17 20 0
-15 -3 5 0
-15 -8 10 0
-15 -18 20 0
-20 -4 5 0
-20 -9 10 0
-20 -14 15 0
-31 -37 36 0
-31 -42 41 0
-31 -47 46 0
-36 -33 31 0
-36 -43 41 0
-36 -48 46 0
-41 -34 31 0
-41 -39 36 0
-41 -49 46 0
-46 -35 31 0
-46 -40 36 0
-46 -45 41 0
-27 -36 37 0
-27 -41 42 0
-27 -46 47 0
-37 -28 27 0
-37 -43 42 0
-37 -48 47 0
-42 -29 27 0
-42 -39 37 0
-42 -49 47 0
-47 -30 27 0
-47 -40 37 0
-47 -45 42 0
-28 -31 33 0
-28 -41 43 0
-28 -46 48 0
-33 -27 28 0
-33 -42 43 0
-33 -47 48 0
-43 -29 28 0
-43 -34 33 0
-43 -49 48 0
-48 -30 28 0
-48 -35 33 0
-48 -45 43 0
-29 -31 34 0
-29 -36 39 0
-29 -46 49 0
-34 -27 29 0
-34 -37 39 0
-34 -47 49 0
-39 -28 29 0
-39 -33 34 0
-39 -48 49 0
-49 -30 29 0
-49 -35 34 0
-49 -40 39 0
-30 -31 35 0
-30 -36 40 0
-30 -41 45 0
-35 -27 30 0
-35 -37 40 0
-35 -42 45 0
-40 -28 30 0
-40 -33 35 0
-40 -43 45 0
-45 -29 30 0
-45 -34 35 0
-45 -39 40 0
-56 -62 61 0
-56 -67 66 0
-56 -72 71 0
-61 -58 56 0
-61 -68 66 0
-61 -73 71 0
-66 -59 56 0
-66 -64 61 0
-66 -74 71 0
-71 -60 56 0
-71 -65 61 0
-71 -70 66 0
-52 -61 62 0
-52 -66 67 0
-52 -71 72 0
-62 -53 52 0
-62 -68 67 0
-62 -73 72 0
-67 -54 52 0
-67 -64 62 0
-67 -74 72 0
-72 -55 52 0
-72 -65 62 0
-72 -70 67 0
-53 -56 58 0
-53 -66 68 0
-53 -71 73 0
-58 -52 53 0
-58 -67 68 0
-58 -72 73 0
-68 -54 53 0
-68 -59 58 0
-68 -74 73 0
-73 -55 53 0
-73 -60 58 0
-73 -70 68 0
-54 -56 59 0
-54 -61 64 0
-54 -71 74 0
-59 -52 54 0
-59 -62 64 0
-59 -72 74 0
-64 -53 54 0
-64 -58 59 0
-64 -73 74 0
-74 -55 54 0
-74 -60 59 0
-74 -65 64 0
-55 -56 60 0
-55 -61 65 0
-55 -66 70 0
-60 -52 55 0
-60 -62 65 0
-60 -67 70 0
-65 -53 55 0
-65 -58 60 0
-65 -68 70 0
-70 -54 55 0
-70 -59 60 0
-70 -64 65 0
-81 -87 86 0
-81 -92 91 0
-81 -97 96 0
-86 -83 81 0
-86 -93 91 0
-86 -98 96 0
-91 -84 81 0
-91 -89 86 0
-91 -99 96 0
-96 -85 81 0
-96 -90 86 0
-96 -95 91 0
-77 -86 87 0
-77 -91 92 0
-77 -96 97 0
-87 -78 77 0
-87 -93 92 0
-87 -98 97 0
-92 -79 77 0
-92 -89 87 0
-92 -99 97 0
-97 -80 77 0
-97 -90 87 0
-97 -95 92 0
-78 -81 83 0
-78 -91 93 0
-78 -96 98 0
-83 -77 78 0
-83 -92 93 0
-83 -97 98 0
-93 -79 78 0
-93 -84 83 0
-93 -99 98 0
-98 -80 78 0
-98 -85 83 0
-98 -95 93 0
-79 -81 84 0
-79 -86 89 0
-79 -96 99 0
-84 -77 79 0
-84 -87 89 0
-84 -97 99 0
-89 -78 79 0
-89 -83 84 0
-89 -98 99 0
-99 -80 79 0
-99 -85 84 0
-99 -90 89 0
-80 -81 85 0
-80 -86 90 0
-80 -91 95 0
-85 -77 80 0
-85 -87 90 0
-85 -92 95 0
-90 -78 80 0
-90 -83 85 0
-90 -93 95 0
-95 -79 80 0
-95 -84 85 0
-95 -89 90 0
-106 -112 111 0
-106 -117 116 0
-106 -122 121 0
-111 -108 106 0
-111 -118 116 0
-111 -123 121 0
-116 -109 106 0
-116 -114 111 0
-116 -124 121 0
-121 -110 106 0
-121 -115 111 0
-121 -120 116 0
-102 -111 112 0
-102 -116 117 0
-102 -121 122 0
-112 -103 102 0
-112 -118 117 0
-112 -123 122 0
-117 -104 102 0
-117 -114 112 0
-117 -124 122 0
-122 -105 102 0
-122 -115 112 0
-122 -120 117 0
-103 -106 108 0
-103 -116 118 0
-103 -121 123 0
-108 -102 103 0
-108 -117 118 0
-108 -122 123 0
-118 -104 103 0
-118 -109 108 0
-118 -124 123 0
-123 -105 103 0
-123 -110 108 0
-123 -120 118 0
-104 -106 109 0
-104 -111 114 0
-104 -121 124 0
-109 -102 104 0
-109 -112 114 0
-109 -122 124 0
-114 -103 104 0
-114 -108 109 0
-114 -123 124 0
-124 -105 104 0
-124 -110 109 0
-124 -115 114 0
-105 -106 110 0
-105 -111 115 0
-105 -116 120 0
-110 -102 105 0
-110 -112 115 0
-110 -117 120 0
-115 -103 105 0
-115 -108 110 0
-115 -118 120 0
-120 -104 105 0
-120 -109 110 0
-120 -114 115 0
-131 -137 136 0
-131 -142 141 0
-131 -147 146 0
-136 -133 131 0
-136 -143 141 0
-136 -148 146 0
-141 -134 131 0
-141 -139 136 0
-141 -149 146 0
-146 -135 131 0
-146 -140 136 0
-146 -145 141 0
-127 -136 137 0
-127 -141 142 0
-127 -146 147 0
-137 -128 127 0
-137 -143 142 0
-137 -148 147 0
-142 -129 127 0
-142 -139 137 0
-142 -149 147 0
-147 -130 127 0
-147 -140 137 0
-147 -145 142 0
-128 -131 133 0
-128 -141 143 0
-128 -146 148 0
-133 -127 128 0
-133 -142 143 0
-133 -147 148 0
-143 -129 128 0
-143 -134 133 0
-143 -149 148 0
-148 -130 128 0
-148 -135 133 0
-148 -145 143 0
-129 -131 134 0
-129 -136 139 0
-129 -146 149 0
-134 -127 129 0
-134 -137 139 0
-134 -147 149 0
-139 -128 129 0
-139 -133 134 0
-139 -148 149 0
-149 -130 129 0
-149 -135 134 0
-149 -140 139 0
-130 -131 135 0
-130 -136 140 0
-130 -141 145 0
-135 -127 130 0
-135 -137 140 0
-135 -142 145 0
-140 -128 130 0
-140 -133 135 0
-140 -143 145 0
-145 -129 130 0
-145 -134 135 0
-145 -139 140 0
-156 -162 161 0
-156 -167 166 0
-156 -172 171 0
-161 -158 156 0
-161 -168 166 0
-161 -173 171 0
-166 -159 156 0
-166 -164 161 0
-166 -174 171 0
-171 -160 156 0
-171 -165 161 0
-171 -170 166 0
-152 -161 162 0
-152 -166 167 0
-152 -171 172 0
-162 -153 152 0
-162 -168 167 0
-162 -173 172 0
-167 -154 152 0
-167 -164 162 0
-167 -174 172 0
-172 -155 152 0
-172 -165 162 0
-172 -170 167 0
-153 -156 158 0
-153 -166 168 0
-153 -171 173 0
-158 -152 153 0
-158 -167 168 0
-158 -172 173 0
-168 -154 153 0
-168 -159 158 0
-168 -174 173 0
-173 -155 153 0
-173 -160 158 0
-173 -170 168 0
-154 -156 159 0
-154 -161 164 0
-154 -171 174 0
-159 -152 154 0
-159 -162 164 0
-159 -172 174 0
-164 -153 154 0
-164 -158 159 0
-164 -173 174 0
-174 -155 154 0
-174 -160 159 0
-174 -165 164 0
-155 -156 160 0
-155 -161 165 0
-155 -166 170 0
-160 -152 155 0
-160 -162 165 0
-160 -167 170 0
-165 -153 155 0
-165 -158 160 0
-165 -168 170 0
-170 -154 155 0
-170 -159 160 0
-170 -164 165 0
-181 -187 186 0
-181 -192 191 0
-181 -197 196 0
-186 -183 181 0
-186 -193 191 0
-186 -198 196 0
-191 -184 181 0
-191 -189 186 0
-191 -199 196 0
-196 -185 181 0
-196 -190 186 0
-196 -195 191 0
-177 -186 187 0
-177 -191 192 0
-177 -196 197 0
-187 -178 177 0
-187 -193 192 0
-187 -198 197 0
-192 -179 177 0
-192 -189 187 0
-192 -199 197 0
-197 -180 177 0
-197 -190 187 0
-197 -195 192 0
-178 -181 183 0
-178 -191 193 0
-178 -196 198 0
-183 -177 178 0
-183 -192 193 0
-183 -197 198 0
-193 -179 178 0
-193 -184 183 0
-193 -199 198 0
-198 -180 178 0
-198 -185 183 0
-198 -195 193 0
-179 -181 184 0
-179 -186 189 0
-179 -196 199 0
-184 -177 179 0
-184 -187 189 0
-184 -197 199 0
-189 -178 179 0
-189 -183 184 0
-189 -198 199 0
-199 -180 179 0
-199 -185 184 0
-199 -190 189 0
-180 -181 185 0
-180 -186 190 0
-180 -191 195 0
-185 -177 180 0
-185 -187 190 0
-185 -192 195 0
-190 -178 180 0
-190 -183 185 0
-190 -193 195 0
-195 -179 180 0
-195 -184 185 0
-195 -189 190 0
-206 -212 211 0
-206 -217 216 0
-206 -222 221 0
-211 -208 206 0
-211 -218 216 0
-211 -223 221 0
-216 -209 206 0
-216 -214 211 0
-216 -224 221 0
-221 -210 206 0
-221 -215 211 0
-221 -220 216 0
-202 -211 212 0
-202 -216 217 0
-202 -221 222 0
-212 -203 202 0
-212 -218 217 0
-212 -223 222 0
-217 -204 202 0
-217 -214 212 0
-217 -224 222 0
-222 -205 202 0
-222 -215 212 0
-222 -220 217 0
-203 -206 208 0
-203 -216 218 0
-203 -221 223 0
-208 -202 203 0
-208 -217 218 0
-208 -222 223 0
-218 -204 203 0
-218 -209 208 0
-218 -224 223 0
-223 -205 203 0
-223 -210 208 0
-223 -220 218 0
-204 -206 209 0
-204 -211 214 0
-204 -221 224 0
-209 -202 204 0
-209 -212 214 0
-209 -222 224 0
-214 -203 204 0
-214 -208 209 0
-214 -223 224 0
-224 -205 204 0
-224 -210 209 0
-224 -215 214 0
-205 -206 210 0
-205 -211 215 0
-205 -216 220 0
-210 -202 205 0
-210 -212 215 0
-210 -217 220 0
-215 -203 205 0
-215 -208 210 0
-215 -218 220 0
-220 -204 205 0
-220 -209 210 0
-220 -214 215 0
-231 -237 236 0
-231 -242 241 0
-231 -247 246 0
-236 -233 231 0
-236 -243 241 0
-236 -248 246 0
-241 -234 231 0
-241 -239 236 0
-241 -249 246 0
-246 -235 231 0
-246 -240 236 0
-246 -245 241 0
-227 -236 237 0
-227 -241 242 0
-227 -246 247 0
-237 -228 227 0
-237 -243 242 0
-237 -248 247 0
-242 -229 227 0
-242 -239 237 0
-242 -249 247 0
-247 -230 227 0
-247 -240 237 0
-247 -245 242 0
-228 -231 233 0
-228 -241 243 0
-228 -246 248 0
-233 -227 228 0
-233 -242 243 0
-233 -247 248 0
-243 -229 228 0
-243 -234 233 0
-243 -249 248 0
-248 -230 228 0
-248 -235 233 0
-248 -245 243 0
-229 -231 234 0
-229 -236 239 0
-229 -246 249 0
-234 -227 229 0
-234 -237 239 0
-234 -247 249 0
-239 -228 229 0
-239 -233 234 0
-239 -248 249 0
-249 -230 229 0
-249 -235 234 0
-249 -240 239 0
-230 -231 235 0
-230 -236 240 0
-230 -241 245 0
-235 -227 230 0
-235 -237 240 0
-235 -242 245 0
-240 -228 230 0
-240 -233 235 0
-240 -243 245 0
-245 -229 230 0
-245 -234 235 0
-245 -239 240 0
-256 -262 261 0
-256 -267 266 0
-256 -272 271 0
-261 -258 256 0
-261 -268 266 0
-261 -273 271 0
-266 -259 256 0
-266 -264 261 0
-266 -274 271 0
-271 -260 256 0
-271 -265 261 0
-271 -270 266 0
-252 -261 262 0
-252 -266 267 0
-252 -271 272 0
-262 -253 252 0
-262 -268 267 0
-262 -273 272 0
-267 -254 252 0
-267 -264 262 0
-267 -274 272 0
-272 -255 252 0
-272 -265 262 0
-272 -270 267 0
-253 -256 258 0
-253 -266 268 0
-253 -271 273 0
-258 -252 253 0
-258 -267 268 0
-258 -272 273 0
-268 -254 253 0
-268 -259 258 0
-268 -274 273 0
-273 -255 253 0
-273 -260 258 0
-273 -270 268 0
-254 -256 259 0
-254 -261 264 0
-254 -271 274 0
-259 -252 254 0
-259 -262 264 0
-259 -272 274 0
-264 -253 254 0
-264 -258 259 0
-264 -273 274 0
-274 -255 254 0
-274 -260 259 0
-274 -265 264 0
-255 -256 260 0
-255 -261 265 0
-255 -266 270 0
-260 -252 255 0
-260 -262 265 0
-260 -267 270 0
-265 -253 255 0
-265 -258 260 0
-265 -268 270 0
-270 -254 255 0
-270 -259 260 0
-270 -264 265 0
-281 -287 286 0
-281 -292 291 0
-281 -297 296 0
-286 -283 281 0
-286 -293 291 0
-286 -298 296 0
-291 -284 281 0
-291 -289 286 0
-291 -299 296 0
-296 -285 281 0
-296 -290 286 0
-296 -295 291 0
-277 -286 287 0
-277 -291 292 0
-277 -296 297 0
-287 -278 277 0
-287 -293 292 0
-287 -298 297 0
-292 -279 277 0
-292 -289 287 0
-292 -299 297 0
-297 -280 277 0
-297 -290 287 0
-297 -295 292 0
-278 -281 283 0
-278 -291 293 0
-278 -296 298 0
-283 -277 278 0
-283 -292 293 0
-283 -297 298 0
-293 -279 278 0
-293 -284 283 0
-293 -299 298 0
-298 -280 278 0
-298 -285 283 0
-298 -295 293 0
-279 -281 284 0
-279 -286 289 0
-279 -296 299 0
-284 -277 279 0
-284 -287 289 0
-284 -297 299 0
-289 -278 279 0
-289 -283 284 0
-289 -298 299 0
-299 -280 279 0
-299 -285 284 0
-299 -290 289 0
-280 -281 285 0
-280 -286 290 0
-280 -291 295 0
-285 -277 280 0
-285 -287 290 0
-285 -292 295 0
-290 -278 280 0
-290 -283 285 0
-290 -293 295 0
-295 -279 280 0
-295 -284 285 0
-295 -289 290 0
6 2 0
-6 -2 0
11 3 0
-11 -3 0
16 4 0
-16 -4 0
21 5 0
-21 -5 0
2 6 0
-2 -6 0
12 8 0
-12 -8 0
17 9 0
-17 -9 0
22 10 0
-22 -10 0
3 11 0
-3 -11 0
8 12 0
-8 -12 0
18 14 0
-18 -14 0
23 15 0
-23 -15 0
4 16 0
-4 -16 0
9 17 0
-9 -17 0
14 18 0
-14 -18 0
24 20 0
-24 -20 0
5 21 0
-5 -21 0
10 22 0
-10 -22 0
15 23 0
-15 -23 0
20 24 0
-20 -24 0
31 27 0
-31 -27 0
36 28 0
-36 -28 0
41 29 0
-41 -29 0
46 30 0
-46 -30 0
27 31 0
-27 -31 0
37 33 0
-37 -33 0
42 34 0
-42 -34 0
47 35 0
-47 -35 0
28 36 0
-28 -36 0
33 37 0
-33 -37 0
43 39 0
-43 -39 0
48 40 0
-48 -40 0
29 41 0
-29 -41 0
34 42 0
-34 -42 0
39 43 0
-39 -43 0
49 45 0
-49 -45 0
30 46 0
-30 -46 0
35 47 0
-35 -47 0
40 48 0
-40 -48 0
45 49 0
-45 -49 0
56 52 0
-56 -52 0
61 53 0
-61 -53 0
66 54 0
-66 -54 0
71 55 0
-71 -55 0
52 56 0
-52 -56 0
62 58 0
-62 -58 0
67 59 0
-67 -59 0
72 60 0
-72 -60 0
53 61 0
-53 -61 0
58 62 0
-58 -62 0
68 64 0
-68 -64 0
73 65 0
-73 -65 0
54 66 0
-54 -66 0
59 67 0
-59 -67 0
64 68 0
-64 -68 0
74 70 0
-74 -70 0
55 71 0
-55 -71 0
60 72 0
-60 -72 0
65 73 0
-65 -73 0
70 74 0
-70 -74 0
81 77 0
-81 -77 0
86 78 0
-86 -78 0
91 79 0
-91 -79 0
96 80 0
-96 -80 0
77 81 0
-77 -81 0
87 83 0
-87 -83 0
92 84 0
-92 -84 0
97 85 0
-97 -85 0
78 86 0
-78 -86 0
83 87 0
-83 -87 0
93 89 0
-93 -89 0
98 90 0
-98 -90 0
79 91 0
-79 -91 0
84 92 0
-84 -92 0
89 93 0
-89 -93 0
99 95 0
-99 -95 0
80 96 0
-80 -96 0
85 97 0
-85 -97 0
90 98 0
-90 -98 0
95 99 0
-95 -99 0
106 102 0
-106 -102 0
111 103 0
-111 -103 0
116 104 0
-116 -104 0
121 105 0
-121 -105 0
102 106 0
-102 -106 0
112 108 0
-112 -108 0
117 109 0
-117 -109 0
122 110 0
-122 -110 0
103 111 0
-103 -111 0
108 112 0
-108 -112 0
118 114 0
-118 -114 0
123 115 0
-123 -115 0
104 116 0
-104 -116 0
109 117 0
-109 -117 0
114 118 0
-114 -118 0
124 120 0
-124 -120 0
105 121 0
-105 -121 0
110 122 0
-110 -122 0
115 123 0
-115 -123 0
120 124 0
-120 -124 0
131 127 0
-131 -127 0
136 128 0
-136 -128 0
141 129 0
-141 -129 0
146 130 0
-146 -130 0
127 131 0
-127 -131 0
137 133 0
-137 -133 0
142 134 0
-142 -134 0
147 135 0
-147 -135 0
128 136 0
-128 -136 0
133 137 0
-133 -137 0
143 139 0
-143 -139 0
148 140 0
-148 -140 0
129 141 0
-129 -141 0
134 142 0
-134 -142 0
139 143 0
-139 -143 0
149 145 0
-149 -145 0
130 146 0
-130 -146 0
135 147 0
-135 -147 0
140 148 0
-140 -148 0
145 149 0
-145 -149 0
156 152 0
-156 -152 0
161 153 0
-161 -153 0
166 154 0
-166 -154 0
171 155 0
-171 -155 0
152 156 0
-152 -156 0
162 158 0
-162 -158 0
167 159 0
-167 -159 0
172 160 0
-172 -160 0
153 161 0
-153 -161 0
158 162 0
-158 -162 0
168 164 0
-168 -164 0
173 165 0
-173 -165 0
154 166 0
-154 -166 0
159 167 0
-159 -167 0
164 168 0
-164 -168 0
174 170 0
-174 -170 0
155 171 0
-155 -171 0
160 172 0
-160 -172 0
165 173 0
-165 -173 0
170 174 0
-170 -174 0
181 177 0
-181 -177 0
186 178 0
-186 -178 0
191 179 0
-191 -179 0
196 180 0
-196 -180 0
177 181 0
-177 -181 0
187 183 0
-187 -183 0
192 184 0
-192 -184 0
197 185 0
-197 -185 0
178 186 0
-178 -186 0
183 187 0
-183 -187 0
193 189 0
-193 -189 0
198 190 0
-198 -190 0
179 191 0
-179 -191 0
184 192 0
-184 -192 0
189 193 0
-189 -193 0
199 195 0
-199 -195 0
180 196 0
-180 -196 0
185 197 0
-185 -197 0
190 198 0
-190 -198 0
195 199 0
-195 -199 0
206 202 0
-206 -202 0
211 203 0
-211 -203 0
216 204 0
-216 -204 0
221 205 0
-221 -205 0
202 206 0
-202 -206 0
212 208 0
-212 -208 0
217 209 0
-217 -209 0
222 210 0
-222 -210 0
203 211 0
-203 -211 0
208 212 0
-208 -212 0
218 214 0
-218 -214 0
223 215 0
-223 -215 0
204 216 0
-204 -216 0
209 217 0
-209 -217 0
214 218 0
-214 -218 0
224 220 0
-224 -220 0
205 221 0
-205 -221 0
210 222 0
-210 -222 0
215 223 0
-215 -223 0
220 224 0
-220 -224 0
231 227 0
-231 -227 0
236 228 0
-236 -228 0
241 229 0
-241 -229 0
246 230 0
-246 -230 0
227 231 0
-227 -231 0
237 233 0
-237 -233 0
242 234 0
-242 -234 0
247 235 0
-247 -235 0
228 236 0
-228 -236 0
233 237 0
-233 -237 0
243 239 0
-243 -239 0
248 240 0
-248 -240 0
229 241 0
-229 -241 0
234 242 0
-234 -242 0
239 243 0
-239 -243 0
249 245 0
-249 -245 0
230 246 0
-230 -246 0
235 247 0
-235 -247 0
240 248 0
-240 -248 0
245 249 0
-245 -249 0
256 252 0
-256 -252 0
261 253 0
-261 -253 0
266 254 0
-266 -254 0
271 255 0
-271 -255 0
252 256 0
-252 -256 0
262 258 0
-262 -258 0
267 259 0
-267 -259 0
272 260 0
-272 -260 0
253 261 0
-253 -261 0
258 262 0
-258 -262 0
268 264 0
-268 -264 0
273 265 0
-273 -265 0
254 266 0
-254 -266 0
259 267 0
-259 -267 0
264 268 0
-264 -268 0
274 270 0
-274 -270 0
255 271 0
-255 -271 0
260 272 0
-260 -272 0
265 273 0
-265 -273 0
270 274 0
-270 -274 0
281 277 0
-281 -277 0
286 278 0
-286 -278 0
291 279 0
-291 -279 0
296 280 0
-296 -280 0
277 281 0
-277 -281 0
287 283 0
-287 -283 0
292 284 0
-292 -284 0
297 285 0
-297 -285 0
278 286 0
-278 -286 0
283 287 0
-283 -287 0
293 289 0
-293 -289 0
298 290 0
-298 -290 0
279 291 0
-279 -291 0
284 292 0
-284 -292 0
289 293 0
-289 -293 0
299 295 0
-299 -295 0
280 296 0
-280 -296 0
285 297 0
-285 -297 0
290 298 0
-290 -298 0
295 299 0
-295 -299 0
-301 -312 0
-301 -323 0
-301 -334 0
-301 -345 0
-301 -356 0
-301 -367 0
-301 -378 0
-301 -389 0
-301 -400 0
-301 -411 0
-312 -323 0
-312 -334 0
-312 -345 0
-312 -356 0
-312 -367 0
-312 -378 0
-312 -389 0
-312 -400 0
-312 -411 0
-323 -334 0
-323 -345 0
-323 -356 0
-323 -367 0
-323 -378 0
-323 -389 0
-323 -400 0
-323 -411 0
-334 -345 0
-334 -356 0
-334 -367 0
-334 -378 0
-334 -389 0
-334 -400 0
-334 -411 0
-345 -356 0
-345 -367 0
-345 -378 0
-345 -389 0
-345 -400 0
-345 -411 0
-356 -367 0
-356 -378 0
-356 -389 0
-356 -400 0
-356 -411 0
-367 -378 0
-367 -389 0
-367 -400 0
-367 -411 0
-378 -389 0
-378 -400 0
-378 -411 0
-389 -400 0
-389 -411 0
-400 -411 0
-302 -313 0
-302 -324 0
-302 -335 0
-302 -346 0
-302 -357 0
-302 -368 0
-302 -379 0
-302 -390 0
-302 -401 0
-302 -412 0
-313 -324 0
-313 -335 0
-313 -346 0
-313 -357 0
-313 -368 0
-313 -379 0
-313 -390 0
-313 -401 0
-313 -412 0
-324 -335 0
-324 -346 0
-324 -357 0
-324 -368 0
-324 -379 0
-324 -390 0
-324 -401 0
-324 -412 0
-335 -346 0
-335 -357 0
-335 -368 0
-335 -379 0
-335 -390 0
-335 -401 0
-335 -412 0
-346 -357 0
-346 -368 0
-346 -379 0
-346 -390 0
-346 -401 0
-346 -412 0
-357 -368 0
-357 -379 0
-357 -390 0
-357 -401 0
-357 -412 0
-368 -379 0
-368 -390 0
-368 -401 0
-368 -412 0
-379 -390 0
-379 -401 0
-379 -412 0
-390 -401 0
-390 -412 0
-401 -412 0
-303 -314 0
-303 -325 0
-303 -336 0
-303 -347 0
-303 -358 0
-303 -369 0
-303 -380 0
-303 -391 0
-303 -402 0
-303 -413 0
-314 -325 0
-314 -336 0
-314 -347 0
-314 -358 0
-314 -369 0
-314 -380 0
-314 -391 0
-314 -402 0
-314 -413 0
-325 -336 0
-325 -347 0
-325 -358 0
-325 -369 0
-325 -380 0
-325 -391 0
-325 -402 0
-325 -413 0
-336 -347 0
-336 -358 0
-336 -369 0
-336 -380 0
-336 -391 0
-336 -402 0
-336 -413 0
-347 -358 0
-347 -369 0
-347 -380 0
-347 -391 0
-347 -402 0
-347 -413 0
-358 -369 0
-358 -380 0
-358 -391 0
-358 -402 0
-358 -413 0
-369 -380 0
-369 -391 0
-369 -402 0
-369 -413 0
-380 -391 0
-380 -402 0
-380 -413 0
-391 -402 0
-391 -413 0
-402 -413 0
-304 -315 0
-304 -326 0
-304 -337 0
-304 -348 0
-304 -359 0
-304 -370 0
-304 -381 0
-304 -392 0
-304 -403 0
-304 -414 0
-315 -326 0
-315 -337 0
-315 -348 0
-315 -359 0
-315 -370 0
-315 -381 0
-315 -392 0
-315 -403 0
-315 -414 0
-326 -337 0
-326 -348 0
-326 -359 0
-326 -370 0
-326 -381 0
-326 -392 0
-326 -403 0
-326 -414 0
-337 -348 0
-337 -359 0
-337 -370 0
-337 -381 0
-337 -392 0
-337 -403 0
-337 -414 0
-348 -359 0
-348 -370 0
-348 -381 0
-348 -392 0
-348 -403 0
-348 -414 0
-359 -370 0
-359 -381 0
-359 -392 0
-359 -403 0
-359 -414 0
-370 -381 0
-370 -392 0
-370 -403 0
-370 -414 0
-381 -392 0
-381 -403 0
-381 -414 0
-392 -403 0
-392 -414 0
-403 -414 0
-305 -316 0
-305 -327 0
-305 -338 0
-305 -349 0
-305 -360 0
-305 -371 0
-305 -382 0
-305 -393 0
-305 -404 0
-305 -415 0
-316 -327 0
-316 -338 0
-316 -349 0
-316 -360 0
-316 -371 0
-316 -382 0
-316 -393 0
-316 -404 0
-316 -415 0
-327 -338 0
-327 -349 0
-327 -360 0
-327 -371 0
-327 -382 0
-327 -393 0
-327 -404 0
-327 -415 0
-338 -349 0
-338 -360 0
-338 -371 0
-338 -382 0
-338 -393 0
-338 -404 0
-338 -415 0
-349 -360 0
-349 -371 0
-349 -382 0
-349 -393 0
-349 -404 0
-349 -415 0
-360 -371 0
-360 -382 0
-360 -393 0
-360 -404 0
-360 -415 0
-371 -382 0
-371 -393 0
-371 -404 0
-371 -415 0
-382 -393 0
-382 -404 0
-382 -415 0
-393 -404 0
-393 -415 0
-404 -415 0
-306 -317 0
-306 -328 0
-306 -339 0
-306 -350 0
-306 -361 0
-306 -372 0
-306 -383 0
-306 -394 0
-306 -405 0
-306 -416 0
-317 -328 0
-317 -339 0
-317 -350 0
-317 -361 0
-317 -372 0
-317 -383 0
-317 -394 0
-317 -405 0
-317 -416 0
-328 -339 0
-328 -350 0
-328 -361 0
-328 -372 0
-328 -383 0
-328 -394 0
-328 -405 0
-328 -416 0
-339 -350 0
-339 -361 0
-339 -372 0
-339 -383 0
-339 -394 0
-339 -405 0
-339 -416 0
-350 -361 0
-350 -372 0
-350 -383 0
-350 -394 0
-350 -405 0
-350 -416 0
-361 -372 0
-361 -383 0
-361 -394 0
-361 -405 0
-361 -416 0
-372 -383 0
-372 -394 0
-372 -405 0
-372 -416 0
-383 -394 0
-383 -405 0
-383 -416 0
-394 -405 0
-394 -416 0
-405 -416 0
-307 -318 0
-307 -329 0
-307 -340 0
-307 -351 0
-307 -362 0
-307 -373 0
-307 -384 0
-307 -395 0
-307 -406 0
-307 -417 0
-318 -329 0
-318 -340 0
-318 -351 0
-318 -362 0
-318 -373 0
-318 -384 0
-318 -395 0
-318 -406 0
-318 -417 0
-329 -340 0
-329 -351 0
-329 -362 0
-329 -373 0
-329 -384 0
-329 -395 0
-329 -406 0
-329 -417 0
-340 -351 0
-340 -362 0
-340 -373 0
-340 -384 0
-340 -395 0
-340 -406 0
-340 -417 0
-351 -362 0
-351 -373 0
-351 -384 0
-351 -395 0
-351 -406 0
-351 -417 0
-362 -373 0
-362 -384 0
-362 -395 0
-362 -406 0
-362 -417 0
-373 -384 0
-373 -395 0
-373 -406 0
-373 -417 0
-384 -395 0
-384 -406 0
-384 -417 0
-395 -406 0
-395 -417 0
-406 -417 0
-308 -319 0
-308 -330 0
-308 -341 0
-308 -352 0
-308 -363 0
-308 -374 0
-308 -385 0
-308 -396 0
-308 -407 0
-308 -418 0
-319 -330 0
-319 -341 0
-319 -352 0
-319 -363 0
-319 -374 0
-319 -385 0
-319 -396 0
-319 -407 0
-319 -418 0
-330 -341 0
-330 -352 0
-330 -363 0
-330 -374 0
-330 -385 0
-330 -396 0
-330 -407 0
-330 -418 0
-341 -352 0
-341 -363 0
-341 -374 0
-341 -385 0
-341 -396 0
-341 -407 0
-341 -418 0
-352 -363 0
-352 -374 0
-352 -385 0
-352 -396 0
-352 -407 0
-352 -418 0
-363 -374 0
-363 -385 0
-363 -396 0
-363 -407 0
-363 -418 0
-374 -385 0
-374 -396 0
-374 -407 0
-374 -418 0
-385 -396 0
-385 -407 0
-385 -418 0
-396 -407 0
-396 -418 0
-407 -418 0
-309 -320 0
-309 -331 0
-309 -342 0
-309 -353 0
-309 -364 0
-309 -375 0
-309 -386 0
-309 -397 0
-309 -408 0
-309 -419 0
-320 -331 0
-320 -342 0
-320 -353 0
-320 -364 0
-320 -375 0
-320 -386 0
-320 -397 0
-320 -408 0
-320 -419 0
-331 -342 0
-331 -353 0
-331 -364 0
-331 -375 0
-331 -386 0
-331 -397 0
-331 -408 0
-331 -419 0
-342 -353 0
-342 -364 0
-342 -375 0
-342 -386 0
-342 -397 0
-342 -408 0
-342 -419 0
-353 -364 0
-353 -375 0
-353 -386 0
-353 -397 0
-353 -408 0
-353 -419 0
-364 -375 0
-364 -386 0
-364 -397 0
-364 -408 0
-364 -419 0
-375 -386 0
-375 -397 0
-375 -408 0
-375 -419 0
-386 -397 0
-386 -408 0
-386 -419 0
-397 -408 0
-397 -419 0
-408 -419 0
-310 -321 0
-310 -332 0
-310 -343 0
-310 -354 0
-310 -365 0
-310 -376 0
-310 -387 0
-310 -398 0
-310 -409 0
-310 -420 0
-321 -332 0
-321 -343 0
-321 -354 0
-321 -365 0
-321 -376 0
-321 -387 0
-321 -398 0
-321 -409 0
-321 -420 0
-332 -343 0
-332 -354 0
-332 -365 0
-332 -376 0
-332 -387 0
-332 -398 0
-332 -409 0
-332 -420 0
-343 -354 0
-343 -365 0
-343 -376 0
-343 -387 0
-343 -398 0
-343 -409 0
-343 -420 0
-354 -365 0
-354 -376 0
-354 -387 0
-354 -398 0
-354 -409 0
-354 -420 0
-365 -376 0
-365 -387 0
-365 -398 0
-365 -409 0
-365 -420 0
-376 -387 0
-376 -398 0
-376 -409 0
-376 -420 0
-387 -398 0
-387 -409 0
-387 -420 0
-398 -409 0
-398 -420 0
-409 -420 0
-311 -322 0
-311 -333 0
-311 -344 0
-311 -355 0
-311 -366 0
-311 -377 0
-311 -388 0
-311 -399 0
-311 -410 0
-311 -421 0
-322 -333 0
-322 -344 0
-322 -355 0
-322 -366 0
-322 -377 0
-322 -388 0
-322 -399 0
-322 -410 0
-322 -421 0
-333 -344 0
-333 -355 0
-333 -366 0
-333 -377 0
-333 -388 0
-333 -399 0
-333 -410 0
-333 -421 0
-344 -355 0
-344 -366 0
-344 -377 0
-344 -388 0
-344 -399 0
-344 -410 0
-344 -421 0
-355 -366 0
-355 -377 0
-355 -388 0
-355 -399 0
-355 -410 0
-355 -421 0
-366 -377 0
-366 -388 0
-366 -399 0
-366 -410 0
-366 -421 0
-377 -388 0
-377 -399 0
-377 -410 0
-377 -421 0
-388 -399 0
-388 -410 0
-388 -421 0
-399 -410 0
-399 -421 0
-410 -421 0
301 312 323 334 345 356 367 378 389 400 411 0
302 313 324 335 346 357 368 379 390 401 412 0
303 314 325 336 347 358 369 380 391 402 413 0
304 315 326 337 348 359 370 381 392 403 414 0
305 316 327 338 349 360 371 382 393 404 415 0
306 317 328 339 350 361 372 383 394 405 416 0
307 318 329 340 351 362 373 384 395 406 417 0
308 319 330 341 352 363 374 385 396 407 418 0
309 320 331 342 353 364 375 386 397 408 419 0
310 321 332 343 354 365 376 387 398 409 420 0
311 322 333 344 355 366 377 388 399 410 421 0
-301 -6 -31 0
-301 6 31 0
-312 -31 -56 0
-312 31 56 0
-323 -56 -81 0
-323 56 81 0
-334 -81 -106 0
-334 81 106 0
-345 -106 -131 0
-345 106 131 0
-356 -131 -156 0
-356 131 156 0
-367 -156 -181 0
-367 156 181 0
-378 -181 -206 0
-378 181 206 0
-389 -206 -231 0
-389 206 231 0
-400 -231 -256 0
-400 231 256 0
-411 -256 -281 0
-411 256 281 0
-302 -6 -31 0
-302 6 31 0
-313 -31 -56 0
-313 31 56 0
-324 -56 -81 0
-324 56 81 0
-335 -81 -106 0
-335 81 106 0
-346 -106 -131 0
-346 106 131 0
-357 -131 -156 0
-357 131 156 0
-368 -156 -181 0
-368 156 181 0
-379 -181 -206 0
-379 181 206 0
-390 -206 -231 0
-390 206 231 0
-401 -231 -256 0
-401 231 256 0
-412 -256 -281 0
-412 256 281 0
-303 -11 -36 0
-303 11 36 0
-314 -36 -61 0
-314 36 61 0
-325 -61 -86 0
-325 61 86 0
-336 -86 -111 0
-336 86 111 0
-347 -111 -136 0
-347 111 136 0
-358 -136 -161 0
-358 136 161 0
-369 -161 -186 0
-369 161 186 0
-380 -186 -211 0
-380 186 211 0
-391 -211 -236 0
-391 211 236 0
-402 -236 -261 0
-402 236 261 0
-413 -261 -286 0
-413 261 286 0
-304 -11 -36 0
-304 11 36 0
-315 -36 -61 0
-315 36 61 0
-326 -61 -86 0
-326 61 86 0
-337 -86 -111 0
-337 86 111 0
-348 -111 -136 0
-348 111 136 0
-359 -136 -161 0
-359 136 161 0
-370 -161 -186 0
-370 161 186 0
-381 -186 -211 0
-381 186 211 0
-392 -211 -236 0
-392 211 236 0
-403 -236 -261 0
-403 236 261 0
-414 -261 -286 0
-414 261 286 0
-305 -16 -41 0
-305 16 41 0
-316 -41 -66 0
-316 41 66 0
-327 -66 -91 0
-327 66 91 0
-338 -91 -116 0
-338 91 116 0
-349 -116 -141 0
-349 116 141 0
-360 -141 -166 0
-360 141 166 0
-371 -166 -191 0
-371 166 191 0
-382 -191 -216 0
-382 191 216 0
-393 -216 -241 0
-393 216 241 0
-404 -241 -266 0
-404 241 266 0
-415 -266 -291 0
-415 266 291 0
-306 -16 -41 0
-306 16 41 0
-317 -41 -66 0
-317 41 66 0
-328 -66 -91 0
-328 66 91 0
-339 -91 -116 0
-339 91 116 0
-350 -116 -141 0
-350 116 141 0
-361 -141 -166 0
-361 141 166 0
-372 -166 -191 0
-372 166 191 0
-383 -191 -216 0
-383 191 216 0
-394 -216 -241 0
-394 216 241 0
-405 -241 -266 0
-405 241 266 0
-416 -266 -291 0
-416 266 291 0
-307 -17 -42 0
-307 17 42 0
-318 -42 -67 0
-318 42 67 0
-329 -67 -92 0
-329 67 92 0
-340 -92 -117 0
-340 92 117 0
-351 -117 -142 0
-351 117 142 0
-362 -142 -167 0
-362 142 167 0
-373 -167 -192 0
-373 167 192 0
-384 -192 -217 0
-384 192 217 0
-395 -217 -242 0
-395 217 242 0
-406 -242 -267 0
-406 242 267 0
-417 -267 -292 0
-417 267 292 0
-308 -17 -42 0
-308 17 42 0
-319 -42 -67 0
-319 42 67 0
-330 -67 -92 0
-330 67 92 0
-341 -92 -117 0
-341 92 117 0
-352 -117 -142 0
-352 117 142 0
-363 -142 -167 0
-363 142 167 0
-374 -167 -192 0
-374 167 192 0
-385 -192 -217 0
-385 192 217 0
-396 -217 -242 0
-396 217 242 0
-407 -242 -267 0
-407 242 267 0
-418 -267 -292 0
-418 267 292 0
-309 -23 -48 0
-309 23 48 0
-320 -48 -73 0
-320 48 73 0
-331 -73 -98 0
-331 73 98 0
-342 -98 -123 0
-342 98 123 0
-353 -123 -148 0
-353 123 148 0
-364 -148 -173 0
-364 148 173 0
-375 -173 -198 0
-375 173 198 0
-386 -198 -223 0
-386 198 223 0
-397 -223 -248 0
-397 223 248 0
-408 -248 -273 0
-408 248 273 0
-419 -273 -298 0
-419 273 298 0
-310 -23 -48 0
-310 23 48 0
-321 -48 -73 0
-321 48 73 0
-332 -73 -98 0
-332 73 98 0
-343 -98 -123 0
-343 98 123 0
-354 -123 -148 0
-354 123 148 0
-365 -148 -173 0
-365 148 173 0
-376 -173 -198 0
-376 173 198 0
-387 -198 -223 0
-387 198 223 0
-398 -223 -248 0
-398 223 248 0
-409 -248 -273 0
-409 248 273 0
-420 -273 -298 0
-420 273 298 0
-311 -24 -49 0
-311 24 49 0
-322 -49 -74 0
-322 49 74 0
-333 -74 -99 0
-333 74 99 0
-344 -99 -124 0
-344 99 124 0
-355 -124 -149 0
-355 124 149 0
-366 -149 -174 0
-366 149 174 0
-377 -174 -199 0
-377 174 199 0
-388 -199 -224 0
-388 199 224 0
-399 -224 -249 0
-399 224 249 0
-410 -249 -274 0
-410 249 274 0
-421 -274 -299 0
-421 274 299 0
-6 31 301 302 0
6 -31 301 302 0
-11 36 303 304 0
11 -36 303 304 0
-16 41 305 306 0
16 -41 305 306 0
-21 46 0
21 -46 0
-12 37 0
12 -37 0
-17 42 307 308 0
17 -42 307 308 0
-22 47 0
22 -47 0
-18 43 0
18 -43 0
-23 48 309 310 0
23 -48 309 310 0
-24 49 311 0
24 -49 311 0
-31 56 312 313 0
31 -56 312 313 0
-36 61 314 315 0
36 -61 314 315 0
-41 66 316 317 0
41 -66 316 317 0
-46 71 0
46 -71 0
-37 62 0
37 -62 0
-42 67 318 319 0
42 -67 318 319 0
-47 72 0
47 -72 0
-43 68 0
43 -68 0
-48 73 320 321 0
48 -73 320 321 0
-49 74 322 0
49 -74 322 0
-56 81 323 324 0
56 -81 323 324 0
-61 86 325 326 0
61 -86 325 326 0
-66 91 327 328 0
66 -91 327 328 0
-71 96 0
71 -96 0
-62 87 0
62 -87 0
-67 92 329 330 0
67 -92 329 330 0
-72 97 0
72 -97 0
-68 93 0
68 -93 0
-73 98 331 332 0
73 -98 331 332 0
-74 99 333 0
74 -99 333 0
-81 106 334 335 0
81 -106 334 335 0
-86 111 336 337 0
86 -111 336 337 0
-91 116 338 339 0
91 -116 338 339 0
-96 121 0
96 -121 0
-87 112 0
87 -112 0
-92 117 340 341 0
92 -117 340 341 0
-97 122 0
97 -122 0
-93 118 0
93 -118 0
-98 123 342 343 0
98 -123 342 343 0
-99 124 344 0
99 -124 344 0
-106 131 345 346 0
106 -131 345 346 0
-111 136 347 348 0
111 -136 347 348 0
-116 141 349 350 0
116 -141 349 350 0
-121 146 0
121 -146 0
-112 137 0
112 -137 0
-117 142 351 352 0
117 -142 351 352 0
-122 147 0
122 -147 0
-118 143 0
118 -143 0
-123 148 353 354 0
123 -148 353 354 0
-124 149 355 0
124 -149 355 0
-131 156 356 357 0
131 -156 356 357 0
-136 161 358 359 0
136 -161 358 359 0
-141 166 360 361 0
141 -166 360 361 0
-146 171 0
146 -171 0
-137 162 0
137 -162 0
-142 167 362 363 0
142 -167 362 363 0
-147 172 0
147 -172 0
-143 168 0
143 -168 0
-148 173 364 365 0
148 -173 364 365 0
-149 174 366 0
149 -174 366 0
-156 181 367 368 0
156 -181 367 368 0
-161 186 369 370 0
161 -186 369 370 0
-166 191 371 372 0
166 -191 371 372 0
-171 196 0
171 -196 0
-162 187 0
162 -187 0
-167 192 373 374 0
167 -192 373 374 0
-172 197 0
172 -197 0
-168 193 0
168 -193 0
-173 198 375 376 0
173 -198 375 376 0
-174 199 377 0
174 -199 377 0
-181 206 378 379 0
181 -206 378 379 0
-186 211 380 381 0
186 -211 380 381 0
-191 216 382 383 0
191 -216 382 383 0
-196 221 0
196 -221 0
-187 212 0
187 -212 0
-192 217 384 385 0
192 -217 384 385 0
-197 222 0
197 -222 0
-193 218 0
193 -218 0
-198 223 386 387 0
198 -223 386 387 0
-199 224 388 0
199 -224 388 0
-206 231 389 390 0
206 -231 389 390 0
-211 236 391 392 0
211 -236 391 392 0
-216 241 393 394 0
216 -241 393 394 0
-221 246 0
221 -246 0
-212 237 0
212 -237 0
-217 242 395 396 0
217 -242 395 396 0
-222 247 0
222 -247 0
-218 243 0
218 -243 0
-223 248 397 398 0
223 -248 397 398 0
-224 249 399 0
224 -249 399 0
-231 256 400 401 0
231 -256 400 401 0
-236 261 402 403 0
236 -261 402 403 0
-241 266 404 405 0
241 -266 404 405 0
-246 271 0
246 -271 0
-237 262 0
237 -262 0
-242 267 406 407 0
242 -267 406 407 0
-247 272 0
247 -272 0
-243 268 0
243 -268 0
-248 273 408 409 0
248 -273 408 409 0
-249 274 410 0
249 -274 410 0
-256 281 411 412 0
256 -281 411 412 0
-261 286 413 414 0
261 -286 413 414 0
-266 291 415 416 0
266 -291 415 416 0
-271 296 0
271 -296 0
-262 287 0
262 -287 0
-267 292 417 418 0
267 -292 417 418 0
-272 297 0
272 -297 0
-268 293 0
268 -293 0
-273 298 419 420 0
273 -298 419 420 0
-274 299 421 0
274 -299 421 0
-301 -302 0
-301 -303 0
-301 -304 0
-301 -305 0
-301 -306 0
-301 -307 0
-301 -308 0
-302 -301 0
-302 -303 0
-302 -304 0
-302 -305 0
-302 -306 0
-302 -307 0
-302 -308 0
-303 -301 0
-303 -302 0
-303 -304 0
-303 -305 0
-303 -306 0
-303 -309 0
-303 -310 0
-304 -301 0
-304 -302 0
-304 -303 0
-304 -305 0
-304 -306 0
-304 -309 0
-304 -310 0
-305 -301 0
-305 -302 0
-305 -303 0
-305 -304 0
-305 -306 0
-305 -307 0
-305 -308 0
-305 -311 0
-306 -301 0
-306 -302 0
-306 -303 0
-306 -304 0
-306 -305 0
-306 -307 0
-306 -308 0
-306 -311 0
-307 -301 0
-307 -302 0
-307 -305 0
-307 -306 0
-307 -308 0
-307 -311 0
-308 -301 0
-308 -302 0
-308 -305 0
-308 -306 0
-308 -307 0
-308 -311 0
-309 -303 0
-309 -304 0
-309 -310 0
-309 -311 0
-310 -303 0
-310 -304 0
-310 -309 0
-310 -311 0
-311 -305 0
-311 -306 0
-311 -307 0
-311 -308 0
-311 -309 0
-311 -310 0
-312 -313 0
-312 -314 0
-312 -315 0
-312 -316 0
-312 -317 0
-312 -318 0
-312 -319 0
-313 -312 0
-313 -314 0
-313 -315 0
-313 -316 0
-313 -317 0
-313 -318 0
-313 -319 0
-314 -312 0
-314 -313 0
-314 -315 0
-314 -316 0
-314 -317 0
-314 -320 0
-314 -321 0
-315 -312 0
-315 -313 0
-315 -314 0
-315 -316 0
-315 -317 0
-315 -320 0
-315 -321 0
-316 -312 0
-316 -313 0
-316 -314 0
-316 -315 0
-316 -317 0
-316 -318 0
-316 -319 0
-316 -322 0
-317 -312 0
-317 -313 0
-317 -314 0
-317 -315 0
-317 -316 0
-317 -318 0
-317 -319 0
-317 -322 0
-318 -312 0
-318 -313 0
-318 -316 0
-318 -317 0
-318 -319 0
-318 -322 0
-319 -312 0
-319 -313 0
-319 -316 0
-319 -317 0
-319 -318 0
-319 -322 0
-320 -314 0
-320 -315 0
-320 -321 0
-320 -322 0
-321 -314 0
-321 -315 0
-321 -320 0
-321 -322 0
-322 -316 0
-322 -317 0
-322 -318 0
-322 -319 0
-322 -320 0
-322 -321 0
-323 -324 0
-323 -325 0
-323 -326 0
-323 -327 0
-323 -328 0
-323 -329 0
-323 -330 0
-324 -323 0
-324 -325 0
-324 -326 0
-324 -327 0
-324 -328 0
-324 -329 0
-324 -330 0
-325 -323 0
-325 -324 0
-325 -326 0
-325 -327 0
-325 -328 0
-325 -331 0
-325 -332 0
-326 -323 0
-326 -324 0
-326 -325 0
-326 -327 0
-326 -328 0
-326 -331 0
-326 -332 0
-327 -323 0
-327 -324 0
-327 -325 0
-327 -326 0
-327 -328 0
-327 -329 0
-327 -330 0
-327 -333 0
-328 -323 0
-328 -324 0
-328 -325 0
-328 -326 0
-328 -327 0
-328 -329 0
-328 -330 0
-328 -333 0
-329 -323 0
-329 -324 0
-329 -327 0
-329 -328 0
-329 -330 0
-329 -333 0
-330 -323 0
-330 -324 0
-330 -327 0
-330 -328 0
-330 -329 0
-330 -333 0
-331 -325 0
-331 -326 0
-331 -332 0
-331 -333 0
-332 -325 0
-332 -326 0
-332 -331 0
-332 -333 0
-333 -327 0
-333 -328 0
-333 -329 0
-333 -330 0
-333 -331 0
-333 -332 0
-334 -335 0
-334 -336 0
-334 -337 0
-334 -338 0
-334 -339 0
-334 -340 0
-334 -341 0
-335 -334 0
-335 -336 0
-335 -337 0
-335 -338 0
-335 -339 0
-335 -340 0
-335 -341 0
-336 -334 0
-336 -335 0
-336 -337 0
-336 -338 0
-336 -339 0
-336 -342 0
-336 -343 0
-337 -334 0
-337 -335 0
-337 -336 0
-337 -338 0
-337 -339 0
-337 -342 0
-337 -343 0
-338 -334 0
-338 -335 0
-338 -336 0
-338 -337 0
-338 -339 0
-338 -340 0
-338 -341 0
-338 -344 0
-339 -334 0
-339 -335 0
-339 -336 0
-339 -337 0
-339 -338 0
-339 -340 0
-339 -341 0
-339 -344 0
-340 -334 0
-340 -335 0
-340 -338 0
-340 -339 0
-340 -341 0
-340 -344 0
-341 -334 0
-341 -335 0
-341 -338 0
-341 -339 0
-341 -340 0
-341 -344 0
-342 -336 0
-342 -337 0
-342 -343 0
-342 -344 0
-343 -336 0
-343 -337 0
-343 -342 0
-343 -344 0
-344 -338 0
-344 -339 0
-344 -340 0
-344 -341 0
-344 -342 0
-344 -343 0
-345 -346 0
-345 -347 0
-345 -348 0
-345 -349 0
-345 -350 0
-345 -351 0
-345 -352 0
-346 -345 0
-346 -347 0
-346 -348 0
-346 -349 0
-346 -350 0
-346 -351 0
-346 -352 0
-347 -345 0
-347 -346 0
-347 -348 0
-347 -349 0
-347 -350 0
-347 -353 0
-347 -354 0
-348 -345 0
-348 -346 0
-348 -347 0
-348 -349 0
-348 -350 0
-348 -353 0
-348 -354 0
-349 -345 0
-349 -346 0
-349 -347 0
-349 -348 0
-349 -350 0
-349 -351 0
-349 -352 0
-349 -355 0
-350 -345 0
-350 -346 0
-350 -347 0
-350 -348 0
-350 -349 0
-350 -351 0
-350 -352 0
-350 -355 0
-351 -345 0
-351 -346 0
-351 -349 0
-351 -350 0
-351 -352 0
-351 -355 0
-352 -345 0
-352 -346 0
-352 -349 0
-352 -350 0
-352 -351 0
-352 -355 0
-353 -347 0
-353 -348 0
-353 -354 0
-353 -355 0
-354 -347 0
-354 -348 0
-354 -353 0
-354 -355 0
-355 -349 0
-355 -350 0
-355 -351 0
-355 -352 0
-355 -353 0
-355 -354 0
-356 -357 0
-356 -358 0
-356 -359 0
-356 -360 0
-356 -361 0
-356 -362 0
-356 -363 0
-357 -356 0
-357 -358 0
-357 -359 0
-357 -360 0
-357 -361 0
-357 -362 0
-357 -363 0
-358 -356 0
-358 -357 0
-358 -359 0
-358 -360 0
-358 -361 0
-358 -364 0
-358 -365 0
-359 -356 0
-359 -357 0
-359 -358 0
-359 -360 0
-359 -361 0
-359 -364 0
-359 -365 0
-360 -356 0
-360 -357 0
-360 -358 0
-360 -359 0
-360 -361 0
-360 -362 0
-360 -363 0
-360 -366 0
-361 -356 0
-361 -357 0
-361 -358 0
-361 -359 0
-361 -360 0
-361 -362 0
-361 -363 0
-361 -366 0
-362 -356 0
-362 -357 0
-362 -360 0
-362 -361 0
-362 -363 0
-362 -366 0
-363 -356 0
-363 -357 0
-363 -360 0
-363 -361 0
-363 -362 0
-363 -366 0
-364 -358 0
-364 -359 0
-364 -365 0
-364 -366 0
-365 -358 0
-365 -359 0
-365 -364 0
-365 -366 0
-366 -360 0
-366 -361 0
-366 -362 0
-366 -363 0
-366 -364 0
-366 -365 0
-367 -368 0
-367 -369 0
-367 -370 0
-367 -371 0
-367 -372 0
-367 -373 0
-367 -374 0
-368 -367 0
-368 -369 0
-368 -370 0
-368 -371 0
-368 -372 0
-368 -373 0
-368 -374 0
-369 -367 0
-369 -368 0
-369 -370 0
-369 -371 0
-369 -372 0
-369 -375 0
-369 -376 0
-370 -367 0
-370 -368 0
-370 -369 0
-370 -371 0
-370 -372 0
-370 -375 0
-370 -376 0
-371 -367 0
-371 -368 0
-371 -369 0
-371 -370 0
-371 -372 0
-371 -373 0
-371 -374 0
-371 -377 0
-372 -367 0
-372 -368 0
-372 -369 0
-372 -370 0
-372 -371 0
-372 -373 0
-372 -374 0
-372 -377 0
-373 -367 0
-373 -368 0
-373 -371 0
-373 -372 0
-373 -374 0
-373 -377 0
-374 -367 0
-374 -368 0
-374 -371 0
-374 -372 0
-374 -373 0
-374 -377 0
-375 -369 0
-375 -370 0
-375 -376 0
-375 -377 0
-376 -369 0
-376 -370 0
-376 -375 0
-376 -377 0
-377 -371 0
-377 -372 0
-377 -373 0
-377 -374 0
-377 -375 0
-377 -376 0
-378 -379 0
-378 -380 0
-378 -381 0
-378 -382 0
-378 -383 0
-378 -384 0
-378 -385 0
-379 -378 0
-379 -380 0
-379 -381 0
-379 -382 0
-379 -383 0
-379 -384 0
-379 -385 0
-380 -378 0
-380 -379 0
-380 -381 0
-380 -382 0
-380 -383 0
-380 -386 0
-380 -387 0
-381 -378 0
-381 -379 0
-381 -380 0
-381 -382 0
-381 -383 0
-381 -386 0
-381 -387 0
-382 -378 0
-382 -379 0
-382 -380 0
-382 -381 0
-382 -383 0
-382 -384 0
-382 -385 0
-382 -388 0
-383 -378 0
-383 -379 0
-383 -380 0
-383 -381 0
-383 -382 0
-383 -384 0
-383 -385 0
-383 -388 0
-384 -378 0
-384 -379 0
-384 -382 0
-384 -383 0
-384 -385 0
-384 -388 0
-385 -378 0
-385 -379 0
-385 -382 0
-385 -383 0
-385 -384 0
-385 -388 0
-386 -380 0
-386 -381 0
-386 -387 0
-386 -388 0
-387 -380 0
-387 -381 0
-387 -386 0
-387 -388 0
-388 -382 0
-388 -383 0
-388 -384 0
-388 -385 0
-388 -386 0
-388 -387 0
-389 -390 0
-389 -391 0
-389 -392 0
-389 -393 0
-389 -394 0
-389 -395 0
-389 -396 0
-390 -389 0
-390 -391 0
-390 -392 0
-390 -393 0
-390 -394 0
-390 -395 0
-390 -396 0
-391 -389 0
-391 -390 0
-391 -392 0
-391 -393 0
-391 -394 0
-391 -397 0
-391 -398 0
-392 -389 0
-392 -390 0
-392 -391 0
-392 -393 0
-392 -394 0
-392 -397 0
-392 -398 0
-393 -389 0
-393 -390 0
-393 -391 0
-393 -392 0
-393 -394 0
-393 -395 0
-393 -396 0
-393 -399 0
-394 -389 0
-394 -390 0
-394 -391 0
-394 -392 0
-394 -393 0
-394 -395 0
-394 -396 0
-394 -399 0
-395 -389 0
-395 -390 0
-395 -393 0
-395 -394 0
-395 -396 0
-395 -399 0
-396 -389 0
-396 -390 0
-396 -393 0
-396 -394 0
-396 -395 0
-396 -399 0
-397 -391 0
-397 -392 0
-397 -398 0
-397 -399 0
-398 -391 0
-398 -392 0
-398 -397 0
-398 -399 0
-399 -393 0
-399 -394 0
-399 -395 0
-399 -396 0
-399 -397 0
-399 -398 0
-400 -401 0
-400 -402 0
-400 -403 0
-400 -404 0
-400 -405 0
-400 -406 0
-400 -407 0
-401 -400 0
-401 -402 0
-401 -403 0
-401 -404 0
-401 -405 0
-401 -406 0
-401 -407 0
-402 -400 0
-402 -401 0
-402 -403 0
-402 -404 0
-402 -405 0
-402 -408 0
-402 -409 0
-403 -400 0
-403 -401 0
-403 -402 0
-403 -404 0
-403 -405 0
-403 -408 0
-403 -409 0
-404 -400 0
-404 -401 0
-404 -402 0
-404 -403 0
-404 -405 0
-404 -406 0
-404 -407 0
-404 -410 0
-405 -400 0
-405 -401 0
-405 -402 0
-405 -403 0
-405 -404 0
-405 -406 0
-405 -407 0
-405 -410 0
-406 -400 0
-406 -401 0
-406 -404 0
-406 -405 0
-406 -407 0
-406 -410 0
-407 -400 0
-407 -401 0
-407 -404 0
-407 -405 0
-407 -406 0
-407 -410 0
-408 -402 0
-408 -403 0
-408 -409 0
-408 -410 0
-409 -402 0
-409 -403 0
-409 -408 0
-409 -410 0
-410 -404 0
-410 -405 0
-410 -406 0
-410 -407 0
-410 -408 0
-410 -409 0
-411 -412 0
-411 -413 0
-411 -414 0
-411 -415 0
-411 -416 0
-411 -417 0
-411 -418 0
-412 -411 0
-412 -413 0
-412 -414 0
-412 -415 0
-412 -416 0
-412 -417 0
-412 -418 0
-413 -411 0
-413 -412 0
-413 -414 0
-413 -415 0
-413 -416 0
-413 -419 0
-413 -420 0
-414 -411 0
-414 -412 0
-414 -413 0
-414 -415 0
-414 -416 0
-414 -419 0
-414 -420 0
-415 -411 0
-415 -412 0
-415 -413 0
-415 -414 0
-415 -416 0
-415 -417 0
-415 -418 0
-415 -421 0
-416 -411 0
-416 -412 0
-416 -413 0
-416 -414 0
-416 -415 0
-416 -417 0
-416 -418 0
-416 -421 0
-417 -411 0
-417 -412 0
-417 -415 0
-417 -416 0
-417 -418 0
-417 -421 0
-418 -411 0
-418 -412 0
-418 -415 0
-418 -416 0
-418 -417 0
-418 -421 0
-419 -413 0
-419 -414 0
-419 -420 0
-419 -421 0
-420 -413 0
-420 -414 0
-420 -419 0
-420 -421 0
-421 -415 0
-421 -416 0
-421 -417 0
-421 -418 0
-421 -419 0
-421 -420 0